\ LP format - for model browsing. Use MPS format to capture full model detail.
Minimize
  0 x11 + 0 x12 + 300 x13 + 400 x14 + 200 x15 + 600 x21 + 400 x22 + 600 x23
   + 0 x24 + 400 x25 + 0 x31 + 300 x32 + 0 x33 + 600 x34 + 300 x35
   + 540 x41 + 360 x42 + 540 x43 + 0 x44 + 360 x45 + 810 x51 + 540 x52
   + 0 x53 + 1080 x54 + 0 x55 + 960 x61 + 0 x62 + 960 x63 + 0 x64 + 0 x65
   + 0 t1111 + 0 t1112 + 0 t1113 + 0 t1114 + 0 t1115 + 0 t1121 + 0 t1122
   + 0 t1123 + 0 t1124 + 0 t1125 + 0 t1131 + 0 t1132 + 0 t1133 + 0 t1134
   + 0 t1135 + 0 t1141 + 0 t1142 + 0 t1143 + 0 t1144 + 0 t1145 + 0 t1151
   + 0 t1152 + 0 t1153 + 0 t1154 + 0 t1155 + 0 t1161 + 0 t1162 + 0 t1163
   + 0 t1164 + 0 t1165 + 0 t1211 + 0 t1212 + 0 t1213 + 0 t1214 + 0 t1215
   + 0 t1221 + 0 t1222 + 0 t1223 + 0 t1224 + 0 t1225 + 0 t1231 + 0 t1232
   + 0 t1233 + 0 t1234 + 0 t1235 + 0 t1241 + 0 t1242 + 0 t1243 + 0 t1244
   + 0 t1245 + 0 t1251 + 0 t1252 + 0 t1253 + 0 t1254 + 0 t1255 + 0 t1261
   + 0 t1262 + 0 t1263 + 0 t1264 + 0 t1265 + 0 t1311 + 0 t1312 + 0 t1313
   + 0 t1314 + 0 t1315 + 0 t1321 + 0 t1322 + 0 t1323 + 0 t1324 + 0 t1325
   + 0 t1331 + 0 t1332 + 0 t1333 + 0 t1334 + 0 t1335 + 0 t1341 + 0 t1342
   + 0 t1343 + 0 t1344 + 0 t1345 + 0 t1351 + 0 t1352 + 0 t1353 + 0 t1354
   + 0 t1355 + 0 t1361 + 0 t1362 + 0 t1363 + 0 t1364 + 0 t1365 + 0 t1411
   + 0 t1412 + 0 t1413 + 0 t1414 + 0 t1415 + 0 t1421 + 0 t1422 + 0 t1423
   + 0 t1424 + 0 t1425 + 0 t1431 + 0 t1432 + 0 t1433 + 0 t1434 + 0 t1435
   + 0 t1441 + 0 t1442 + 0 t1443 + 0 t1444 + 0 t1445 + 0 t1451 + 0 t1452
   + 0 t1453 + 0 t1454 + 0 t1455 + 0 t1461 + 0 t1462 + 0 t1463 + 0 t1464
   + 0 t1465 + 0 t1511 + 0 t1512 + 0 t1513 + 0 t1514 + 0 t1515 + 0 t1521
   + 0 t1522 + 0 t1523 + 0 t1524 + 0 t1525 + 0 t1531 + 0 t1532 + 0 t1533
   + 0 t1534 + 0 t1535 + 0 t1541 + 0 t1542 + 0 t1543 + 0 t1544 + 0 t1545
   + 0 t1551 + 0 t1552 + 0 t1553 + 0 t1554 + 0 t1555 + 0 t1561 + 0 t1562
   + 0 t1563 + 0 t1564 + 0 t1565 + 0 t2111 + 0 t2112 + 0 t2113 + 0 t2114
   + 0 t2115 + 0 t2121 + 0 t2122 + 0 t2123 + 0 t2124 + 0 t2125 + 0 t2131
   + 0 t2132 + 0 t2133 + 0 t2134 + 0 t2135 + 0 t2141 + 0 t2142 + 0 t2143
   + 0 t2144 + 0 t2145 + 0 t2151 + 0 t2152 + 0 t2153 + 0 t2154 + 0 t2155
   + 0 t2161 + 0 t2162 + 0 t2163 + 0 t2164 + 0 t2165 + 0 t2211 + 0 t2212
   + 0 t2213 + 0 t2214 + 0 t2215 + 0 t2221 + 0 t2222 + 0 t2223 + 0 t2224
   + 0 t2225 + 0 t2231 + 0 t2232 + 0 t2233 + 0 t2234 + 0 t2235 + 0 t2241
   + 0 t2242 + 0 t2243 + 0 t2244 + 0 t2245 + 0 t2251 + 0 t2252 + 0 t2253
   + 0 t2254 + 0 t2255 + 0 t2261 + 0 t2262 + 0 t2263 + 0 t2264 + 0 t2265
   + 0 t2311 + 0 t2312 + 0 t2313 + 0 t2314 + 0 t2315 + 0 t2321 + 0 t2322
   + 0 t2323 + 0 t2324 + 0 t2325 + 0 t2331 + 0 t2332 + 0 t2333 + 0 t2334
   + 0 t2335 + 0 t2341 + 0 t2342 + 0 t2343 + 0 t2344 + 0 t2345 + 0 t2351
   + 0 t2352 + 0 t2353 + 0 t2354 + 0 t2355 + 0 t2361 + 0 t2362 + 0 t2363
   + 0 t2364 + 0 t2365 + 0 t2411 + 0 t2412 + 0 t2413 + 0 t2414 + 0 t2415
   + 0 t2421 + 0 t2422 + 0 t2423 + 0 t2424 + 0 t2425 + 0 t2431 + 0 t2432
   + 0 t2433 + 0 t2434 + 0 t2435 + 0 t2441 + 0 t2442 + 0 t2443 + 0 t2444
   + 0 t2445 + 0 t2451 + 0 t2452 + 0 t2453 + 0 t2454 + 0 t2455 + 0 t2461
   + 0 t2462 + 0 t2463 + 0 t2464 + 0 t2465 + 0 t2511 + 0 t2512 + 0 t2513
   + 0 t2514 + 0 t2515 + 0 t2521 + 0 t2522 + 0 t2523 + 0 t2524 + 0 t2525
   + 0 t2531 + 0 t2532 + 0 t2533 + 0 t2534 + 0 t2535 + 0 t2541 + 0 t2542
   + 0 t2543 + 0 t2544 + 0 t2545 + 0 t2551 + 0 t2552 + 0 t2553 + 0 t2554
   + 0 t2555 + 0 t2561 + 0 t2562 + 0 t2563 + 0 t2564 + 0 t2565 + 0 t3111
   + 0 t3112 + 0 t3113 + 0 t3114 + 0 t3115 + 0 t3121 + 0 t3122 + 0 t3123
   + 0 t3124 + 0 t3125 + 0 t3131 + 0 t3132 + 0 t3133 + 0 t3134 + 0 t3135
   + 0 t3141 + 0 t3142 + 0 t3143 + 0 t3144 + 0 t3145 + 0 t3151 + 0 t3152
   + 0 t3153 + 0 t3154 + 0 t3155 + 0 t3161 + 0 t3162 + 0 t3163 + 0 t3164
   + 0 t3165 + 0 t3211 + 0 t3212 + 0 t3213 + 0 t3214 + 0 t3215 + 0 t3221
   + 0 t3222 + 0 t3223 + 0 t3224 + 0 t3225 + 0 t3231 + 0 t3232 + 0 t3233
   + 0 t3234 + 0 t3235 + 0 t3241 + 0 t3242 + 0 t3243 + 0 t3244 + 0 t3245
   + 0 t3251 + 0 t3252 + 0 t3253 + 0 t3254 + 0 t3255 + 0 t3261 + 0 t3262
   + 0 t3263 + 0 t3264 + 0 t3265 + 0 t3311 + 0 t3312 + 0 t3313 + 0 t3314
   + 0 t3315 + 0 t3321 + 0 t3322 + 0 t3323 + 0 t3324 + 0 t3325 + 0 t3331
   + 0 t3332 + 0 t3333 + 0 t3334 + 0 t3335 + 0 t3341 + 0 t3342 + 0 t3343
   + 0 t3344 + 0 t3345 + 0 t3351 + 0 t3352 + 0 t3353 + 0 t3354 + 0 t3355
   + 0 t3361 + 0 t3362 + 0 t3363 + 0 t3364 + 0 t3365 + 0 t3411 + 0 t3412
   + 0 t3413 + 0 t3414 + 0 t3415 + 0 t3421 + 0 t3422 + 0 t3423 + 0 t3424
   + 0 t3425 + 0 t3431 + 0 t3432 + 0 t3433 + 0 t3434 + 0 t3435 + 0 t3441
   + 0 t3442 + 0 t3443 + 0 t3444 + 0 t3445 + 0 t3451 + 0 t3452 + 0 t3453
   + 0 t3454 + 0 t3455 + 0 t3461 + 0 t3462 + 0 t3463 + 0 t3464 + 0 t3465
   + 0 t3511 + 0 t3512 + 0 t3513 + 0 t3514 + 0 t3515 + 0 t3521 + 0 t3522
   + 0 t3523 + 0 t3524 + 0 t3525 + 0 t3531 + 0 t3532 + 0 t3533 + 0 t3534
   + 0 t3535 + 0 t3541 + 0 t3542 + 0 t3543 + 0 t3544 + 0 t3545 + 0 t3551
   + 0 t3552 + 0 t3553 + 0 t3554 + 0 t3555 + 0 t3561 + 0 t3562 + 0 t3563
   + 0 t3564 + 0 t3565 + 0 t4111 + 0 t4112 + 0 t4113 + 0 t4114 + 0 t4115
   + 0 t4121 + 0 t4122 + 0 t4123 + 0 t4124 + 0 t4125 + 0 t4131 + 0 t4132
   + 0 t4133 + 0 t4134 + 0 t4135 + 0 t4141 + 0 t4142 + 0 t4143 + 0 t4144
   + 0 t4145 + 0 t4151 + 0 t4152 + 0 t4153 + 0 t4154 + 0 t4155 + 0 t4161
   + 0 t4162 + 0 t4163 + 0 t4164 + 0 t4165 + 0 t4211 + 0 t4212 + 0 t4213
   + 0 t4214 + 0 t4215 + 0 t4221 + 0 t4222 + 0 t4223 + 0 t4224 + 0 t4225
   + 0 t4231 + 0 t4232 + 0 t4233 + 0 t4234 + 0 t4235 + 0 t4241 + 0 t4242
   + 0 t4243 + 0 t4244 + 0 t4245 + 0 t4251 + 0 t4252 + 0 t4253 + 0 t4254
   + 0 t4255 + 0 t4261 + 0 t4262 + 0 t4263 + 0 t4264 + 0 t4265 + 0 t4311
   + 0 t4312 + 0 t4313 + 0 t4314 + 0 t4315 + 0 t4321 + 0 t4322 + 0 t4323
   + 0 t4324 + 0 t4325 + 0 t4331 + 0 t4332 + 0 t4333 + 0 t4334 + 0 t4335
   + 0 t4341 + 0 t4342 + 0 t4343 + 0 t4344 + 0 t4345 + 0 t4351 + 0 t4352
   + 0 t4353 + 0 t4354 + 0 t4355 + 0 t4361 + 0 t4362 + 0 t4363 + 0 t4364
   + 0 t4365 + 0 t4411 + 0 t4412 + 0 t4413 + 0 t4414 + 0 t4415 + 0 t4421
   + 0 t4422 + 0 t4423 + 0 t4424 + 0 t4425 + 0 t4431 + 0 t4432 + 0 t4433
   + 0 t4434 + 0 t4435 + 0 t4441 + 0 t4442 + 0 t4443 + 0 t4444 + 0 t4445
   + 0 t4451 + 0 t4452 + 0 t4453 + 0 t4454 + 0 t4455 + 0 t4461 + 0 t4462
   + 0 t4463 + 0 t4464 + 0 t4465 + 0 t4511 + 0 t4512 + 0 t4513 + 0 t4514
   + 0 t4515 + 0 t4521 + 0 t4522 + 0 t4523 + 0 t4524 + 0 t4525 + 0 t4531
   + 0 t4532 + 0 t4533 + 0 t4534 + 0 t4535 + 0 t4541 + 0 t4542 + 0 t4543
   + 0 t4544 + 0 t4545 + 0 t4551 + 0 t4552 + 0 t4553 + 0 t4554 + 0 t4555
   + 0 t4561 + 0 t4562 + 0 t4563 + 0 t4564 + 0 t4565 + 0 t5111 + 0 t5112
   + 0 t5113 + 0 t5114 + 0 t5115 + 0 t5121 + 0 t5122 + 0 t5123 + 0 t5124
   + 0 t5125 + 0 t5131 + 0 t5132 + 0 t5133 + 0 t5134 + 0 t5135 + 0 t5141
   + 0 t5142 + 0 t5143 + 0 t5144 + 0 t5145 + 0 t5151 + 0 t5152 + 0 t5153
   + 0 t5154 + 0 t5155 + 0 t5161 + 0 t5162 + 0 t5163 + 0 t5164 + 0 t5165
   + 0 t5211 + 0 t5212 + 0 t5213 + 0 t5214 + 0 t5215 + 0 t5221 + 0 t5222
   + 0 t5223 + 0 t5224 + 0 t5225 + 0 t5231 + 0 t5232 + 0 t5233 + 0 t5234
   + 0 t5235 + 0 t5241 + 0 t5242 + 0 t5243 + 0 t5244 + 0 t5245 + 0 t5251
   + 0 t5252 + 0 t5253 + 0 t5254 + 0 t5255 + 0 t5261 + 0 t5262 + 0 t5263
   + 0 t5264 + 0 t5265 + 0 t5311 + 0 t5312 + 0 t5313 + 0 t5314 + 0 t5315
   + 0 t5321 + 0 t5322 + 0 t5323 + 0 t5324 + 0 t5325 + 0 t5331 + 0 t5332
   + 0 t5333 + 0 t5334 + 0 t5335 + 0 t5341 + 0 t5342 + 0 t5343 + 0 t5344
   + 0 t5345 + 0 t5351 + 0 t5352 + 0 t5353 + 0 t5354 + 0 t5355 + 0 t5361
   + 0 t5362 + 0 t5363 + 0 t5364 + 0 t5365 + 0 t5411 + 0 t5412 + 0 t5413
   + 0 t5414 + 0 t5415 + 0 t5421 + 0 t5422 + 0 t5423 + 0 t5424 + 0 t5425
   + 0 t5431 + 0 t5432 + 0 t5433 + 0 t5434 + 0 t5435 + 0 t5441 + 0 t5442
   + 0 t5443 + 0 t5444 + 0 t5445 + 0 t5451 + 0 t5452 + 0 t5453 + 0 t5454
   + 0 t5455 + 0 t5461 + 0 t5462 + 0 t5463 + 0 t5464 + 0 t5465 + 0 t5511
   + 0 t5512 + 0 t5513 + 0 t5514 + 0 t5515 + 0 t5521 + 0 t5522 + 0 t5523
   + 0 t5524 + 0 t5525 + 0 t5531 + 0 t5532 + 0 t5533 + 0 t5534 + 0 t5535
   + 0 t5541 + 0 t5542 + 0 t5543 + 0 t5544 + 0 t5545 + 0 t5551 + 0 t5552
   + 0 t5553 + 0 t5554 + 0 t5555 + 0 t5561 + 0 t5562 + 0 t5563 + 0 t5564
   + 0 t5565 + 0 t6111 + 0 t6112 + 0 t6113 + 0 t6114 + 0 t6115 + 0 t6121
   + 0 t6122 + 0 t6123 + 0 t6124 + 0 t6125 + 0 t6131 + 0 t6132 + 0 t6133
   + 0 t6134 + 0 t6135 + 0 t6141 + 0 t6142 + 0 t6143 + 0 t6144 + 0 t6145
   + 0 t6151 + 0 t6152 + 0 t6153 + 0 t6154 + 0 t6155 + 0 t6161 + 0 t6162
   + 0 t6163 + 0 t6164 + 0 t6165 + 0 t6211 + 0 t6212 + 0 t6213 + 0 t6214
   + 0 t6215 + 0 t6221 + 0 t6222 + 0 t6223 + 0 t6224 + 0 t6225 + 0 t6231
   + 0 t6232 + 0 t6233 + 0 t6234 + 0 t6235 + 0 t6241 + 0 t6242 + 0 t6243
   + 0 t6244 + 0 t6245 + 0 t6251 + 0 t6252 + 0 t6253 + 0 t6254 + 0 t6255
   + 0 t6261 + 0 t6262 + 0 t6263 + 0 t6264 + 0 t6265 + 0 t6311 + 0 t6312
   + 0 t6313 + 0 t6314 + 0 t6315 + 0 t6321 + 0 t6322 + 0 t6323 + 0 t6324
   + 0 t6325 + 0 t6331 + 0 t6332 + 0 t6333 + 0 t6334 + 0 t6335 + 0 t6341
   + 0 t6342 + 0 t6343 + 0 t6344 + 0 t6345 + 0 t6351 + 0 t6352 + 0 t6353
   + 0 t6354 + 0 t6355 + 0 t6361 + 0 t6362 + 0 t6363 + 0 t6364 + 0 t6365
   + 0 t6411 + 0 t6412 + 0 t6413 + 0 t6414 + 0 t6415 + 0 t6421 + 0 t6422
   + 0 t6423 + 0 t6424 + 0 t6425 + 0 t6431 + 0 t6432 + 0 t6433 + 0 t6434
   + 0 t6435 + 0 t6441 + 0 t6442 + 0 t6443 + 0 t6444 + 0 t6445 + 0 t6451
   + 0 t6452 + 0 t6453 + 0 t6454 + 0 t6455 + 0 t6461 + 0 t6462 + 0 t6463
   + 0 t6464 + 0 t6465 + 0 t6511 + 0 t6512 + 0 t6513 + 0 t6514 + 0 t6515
   + 0 t6521 + 0 t6522 + 0 t6523 + 0 t6524 + 0 t6525 + 0 t6531 + 0 t6532
   + 0 t6533 + 0 t6534 + 0 t6535 + 0 t6541 + 0 t6542 + 0 t6543 + 0 t6544
   + 0 t6545 + 0 t6551 + 0 t6552 + 0 t6553 + 0 t6554 + 0 t6555 + 0 t6561
   + 0 t6562 + 0 t6563 + 0 t6564 + 0 t6565
Subject To
 Flight_1: x13 + x14 + x15 = 1
 Flight_2: x21 + x22 + x23 + x25 = 1
 Flight_3: x32 + x34 + x35 = 1
 Flight_4: x41 + x42 + x43 + x45 = 1
 Flight_5: x51 + x52 + x54 = 1
 Flight_6: x61 + x63 = 1
 Gate_1T_1: <= 1
 Gate_2T_1: <= 1
 Gate_3T_1: x13 <= 1
 Gate_4T_1: x14 <= 1
 Gate_5T_1: x15 <= 1
 Gate_1T_2: x21 <= 1
 Gate_2T_2: x22 <= 1
 Gate_3T_2: x13 + x23 <= 1
 Gate_4T_2: x14 <= 1
 Gate_5T_2: x15 + x25 <= 1
 Gate_1T_3: x21 + x41 <= 1
 Gate_2T_3: x22 + x32 + x42 <= 1
 Gate_3T_3: x23 + x43 <= 1
 Gate_4T_3: x34 <= 1
 Gate_5T_3: x25 + x35 + x45 <= 1
 Gate_1T_4: x21 + x41 <= 1
 Gate_2T_4: x22 + x32 + x42 <= 1
 Gate_3T_4: x23 + x43 <= 1
 Gate_4T_4: x34 <= 1
 Gate_5T_4: x25 + x35 + x45 <= 1
 Gate_1T_5: x41 + x51 <= 1
 Gate_2T_5: x32 + x42 + x52 <= 1
 Gate_3T_5: x43 <= 1
 Gate_4T_5: x34 + x54 <= 1
 Gate_5T_5: x35 + x45 <= 1
 Gate_1T_6: x61 <= 1
 Gate_2T_6: <= 1
 Gate_3T_6: x63 <= 1
 Gate_4T_6: <= 1
 Gate_5T_6: <= 1
Bounds
Binaries
 x11 x12 x13 x14 x15 x21 x22 x23 x24 x25 x31 x32 x33 x34 x35 x41 x42 x43
 x44 x45 x51 x52 x53 x54 x55 x61 x62 x63 x64 x65 t1111 t1112 t1113 t1114
 t1115 t1121 t1122 t1123 t1124 t1125 t1131 t1132 t1133 t1134 t1135 t1141
 t1142 t1143 t1144 t1145 t1151 t1152 t1153 t1154 t1155 t1161 t1162 t1163
 t1164 t1165 t1211 t1212 t1213 t1214 t1215 t1221 t1222 t1223 t1224 t1225
 t1231 t1232 t1233 t1234 t1235 t1241 t1242 t1243 t1244 t1245 t1251 t1252
 t1253 t1254 t1255 t1261 t1262 t1263 t1264 t1265 t1311 t1312 t1313 t1314
 t1315 t1321 t1322 t1323 t1324 t1325 t1331 t1332 t1333 t1334 t1335 t1341
 t1342 t1343 t1344 t1345 t1351 t1352 t1353 t1354 t1355 t1361 t1362 t1363
 t1364 t1365 t1411 t1412 t1413 t1414 t1415 t1421 t1422 t1423 t1424 t1425
 t1431 t1432 t1433 t1434 t1435 t1441 t1442 t1443 t1444 t1445 t1451 t1452
 t1453 t1454 t1455 t1461 t1462 t1463 t1464 t1465 t1511 t1512 t1513 t1514
 t1515 t1521 t1522 t1523 t1524 t1525 t1531 t1532 t1533 t1534 t1535 t1541
 t1542 t1543 t1544 t1545 t1551 t1552 t1553 t1554 t1555 t1561 t1562 t1563
 t1564 t1565 t2111 t2112 t2113 t2114 t2115 t2121 t2122 t2123 t2124 t2125
 t2131 t2132 t2133 t2134 t2135 t2141 t2142 t2143 t2144 t2145 t2151 t2152
 t2153 t2154 t2155 t2161 t2162 t2163 t2164 t2165 t2211 t2212 t2213 t2214
 t2215 t2221 t2222 t2223 t2224 t2225 t2231 t2232 t2233 t2234 t2235 t2241
 t2242 t2243 t2244 t2245 t2251 t2252 t2253 t2254 t2255 t2261 t2262 t2263
 t2264 t2265 t2311 t2312 t2313 t2314 t2315 t2321 t2322 t2323 t2324 t2325
 t2331 t2332 t2333 t2334 t2335 t2341 t2342 t2343 t2344 t2345 t2351 t2352
 t2353 t2354 t2355 t2361 t2362 t2363 t2364 t2365 t2411 t2412 t2413 t2414
 t2415 t2421 t2422 t2423 t2424 t2425 t2431 t2432 t2433 t2434 t2435 t2441
 t2442 t2443 t2444 t2445 t2451 t2452 t2453 t2454 t2455 t2461 t2462 t2463
 t2464 t2465 t2511 t2512 t2513 t2514 t2515 t2521 t2522 t2523 t2524 t2525
 t2531 t2532 t2533 t2534 t2535 t2541 t2542 t2543 t2544 t2545 t2551 t2552
 t2553 t2554 t2555 t2561 t2562 t2563 t2564 t2565 t3111 t3112 t3113 t3114
 t3115 t3121 t3122 t3123 t3124 t3125 t3131 t3132 t3133 t3134 t3135 t3141
 t3142 t3143 t3144 t3145 t3151 t3152 t3153 t3154 t3155 t3161 t3162 t3163
 t3164 t3165 t3211 t3212 t3213 t3214 t3215 t3221 t3222 t3223 t3224 t3225
 t3231 t3232 t3233 t3234 t3235 t3241 t3242 t3243 t3244 t3245 t3251 t3252
 t3253 t3254 t3255 t3261 t3262 t3263 t3264 t3265 t3311 t3312 t3313 t3314
 t3315 t3321 t3322 t3323 t3324 t3325 t3331 t3332 t3333 t3334 t3335 t3341
 t3342 t3343 t3344 t3345 t3351 t3352 t3353 t3354 t3355 t3361 t3362 t3363
 t3364 t3365 t3411 t3412 t3413 t3414 t3415 t3421 t3422 t3423 t3424 t3425
 t3431 t3432 t3433 t3434 t3435 t3441 t3442 t3443 t3444 t3445 t3451 t3452
 t3453 t3454 t3455 t3461 t3462 t3463 t3464 t3465 t3511 t3512 t3513 t3514
 t3515 t3521 t3522 t3523 t3524 t3525 t3531 t3532 t3533 t3534 t3535 t3541
 t3542 t3543 t3544 t3545 t3551 t3552 t3553 t3554 t3555 t3561 t3562 t3563
 t3564 t3565 t4111 t4112 t4113 t4114 t4115 t4121 t4122 t4123 t4124 t4125
 t4131 t4132 t4133 t4134 t4135 t4141 t4142 t4143 t4144 t4145 t4151 t4152
 t4153 t4154 t4155 t4161 t4162 t4163 t4164 t4165 t4211 t4212 t4213 t4214
 t4215 t4221 t4222 t4223 t4224 t4225 t4231 t4232 t4233 t4234 t4235 t4241
 t4242 t4243 t4244 t4245 t4251 t4252 t4253 t4254 t4255 t4261 t4262 t4263
 t4264 t4265 t4311 t4312 t4313 t4314 t4315 t4321 t4322 t4323 t4324 t4325
 t4331 t4332 t4333 t4334 t4335 t4341 t4342 t4343 t4344 t4345 t4351 t4352
 t4353 t4354 t4355 t4361 t4362 t4363 t4364 t4365 t4411 t4412 t4413 t4414
 t4415 t4421 t4422 t4423 t4424 t4425 t4431 t4432 t4433 t4434 t4435 t4441
 t4442 t4443 t4444 t4445 t4451 t4452 t4453 t4454 t4455 t4461 t4462 t4463
 t4464 t4465 t4511 t4512 t4513 t4514 t4515 t4521 t4522 t4523 t4524 t4525
 t4531 t4532 t4533 t4534 t4535 t4541 t4542 t4543 t4544 t4545 t4551 t4552
 t4553 t4554 t4555 t4561 t4562 t4563 t4564 t4565 t5111 t5112 t5113 t5114
 t5115 t5121 t5122 t5123 t5124 t5125 t5131 t5132 t5133 t5134 t5135 t5141
 t5142 t5143 t5144 t5145 t5151 t5152 t5153 t5154 t5155 t5161 t5162 t5163
 t5164 t5165 t5211 t5212 t5213 t5214 t5215 t5221 t5222 t5223 t5224 t5225
 t5231 t5232 t5233 t5234 t5235 t5241 t5242 t5243 t5244 t5245 t5251 t5252
 t5253 t5254 t5255 t5261 t5262 t5263 t5264 t5265 t5311 t5312 t5313 t5314
 t5315 t5321 t5322 t5323 t5324 t5325 t5331 t5332 t5333 t5334 t5335 t5341
 t5342 t5343 t5344 t5345 t5351 t5352 t5353 t5354 t5355 t5361 t5362 t5363
 t5364 t5365 t5411 t5412 t5413 t5414 t5415 t5421 t5422 t5423 t5424 t5425
 t5431 t5432 t5433 t5434 t5435 t5441 t5442 t5443 t5444 t5445 t5451 t5452
 t5453 t5454 t5455 t5461 t5462 t5463 t5464 t5465 t5511 t5512 t5513 t5514
 t5515 t5521 t5522 t5523 t5524 t5525 t5531 t5532 t5533 t5534 t5535 t5541
 t5542 t5543 t5544 t5545 t5551 t5552 t5553 t5554 t5555 t5561 t5562 t5563
 t5564 t5565 t6111 t6112 t6113 t6114 t6115 t6121 t6122 t6123 t6124 t6125
 t6131 t6132 t6133 t6134 t6135 t6141 t6142 t6143 t6144 t6145 t6151 t6152
 t6153 t6154 t6155 t6161 t6162 t6163 t6164 t6165 t6211 t6212 t6213 t6214
 t6215 t6221 t6222 t6223 t6224 t6225 t6231 t6232 t6233 t6234 t6235 t6241
 t6242 t6243 t6244 t6245 t6251 t6252 t6253 t6254 t6255 t6261 t6262 t6263
 t6264 t6265 t6311 t6312 t6313 t6314 t6315 t6321 t6322 t6323 t6324 t6325
 t6331 t6332 t6333 t6334 t6335 t6341 t6342 t6343 t6344 t6345 t6351 t6352
 t6353 t6354 t6355 t6361 t6362 t6363 t6364 t6365 t6411 t6412 t6413 t6414
 t6415 t6421 t6422 t6423 t6424 t6425 t6431 t6432 t6433 t6434 t6435 t6441
 t6442 t6443 t6444 t6445 t6451 t6452 t6453 t6454 t6455 t6461 t6462 t6463
 t6464 t6465 t6511 t6512 t6513 t6514 t6515 t6521 t6522 t6523 t6524 t6525
 t6531 t6532 t6533 t6534 t6535 t6541 t6542 t6543 t6544 t6545 t6551 t6552
 t6553 t6554 t6555 t6561 t6562 t6563 t6564 t6565
End
